160
0 128 45 25 89 93 17 134 145 11 
27 30 115 39 70 51 83 121 151 12 
5 148 48 44 34 10 126 109 154 63 
103 96 119 153 41 118 135 106 114 22 
71 13 112 78 58 40 62 113 56 15 
38 2 124 104 52 28 138 82 88 136 
122 29 108 155 146 74 50 99 7 85 
111 130 43 86 140 4 91 37 116 66 
150 55 21 9 100 123 3 149 16 59 
132 139 133 97 33 69 107 47 120 144 
64 125 80 137 24 101 54 102 65 77 
81 32 141 90 68 42 26 1 94 98 
110 60 8 14 105 147 49 53 31 20 
117 142 129 143 79 36 159 157 156 57 
6 67 131 23 76 92 75 127 18 46 
95 35 72 73 87 19 61 158 152 84 
